<number of tasks>
20

<cycle time>
1000

<order strength>
0,195


<task times>
1 224
2 499
3 373
4 188
5 39
6 145
7 417
8 69
9 167
10 506
11 420
12 446
13 225
14 229
15 567
16 291
17 138
18 79
19 195
20 87

<precedence relations>
1,5
1,8
3,6
3,7
5,9
5,12
6,13
6,14
8,10
8,11
9,17
10,16
14,15
15,18
15,19
15,20

<end>
